c A SAT instance generated from a 3-CNF formula that had 14 clauses and 7 variables
p cnf 7 14
4 1 2 0
-3 -5 -2 0
-4 -2 6 0
1 6 2 0
5 1 -2 0
3 -1 5 0
-3 2 -5 0
-1 -3 -5 0
6 -4 -7 0
-1 3 7 0
2 5 -7 0
-7 -5 -4 0
-3 5 -4 0
-2 -1 -7 0
